Optimal - objective value 0.00024078
      0 C0000000               1                       0
      1 C0000001               1                       0
      2 C0000002               1                       0
      3 C0000003               1                       0
      4 C0000004               1                       0
      5 C0000005               1                       0
      6 C0000006               1                       0
      7 C0000007               1                       0
      8 C0000008               1                       0
      9 C0000009               1                       0
     10 C0000010               0                       0
     11 C0000011               0                       0
     12 C0000012               0                       0
     13 C0000013               0                       0
     14 C0000014               0                       0
     15 C0000015               0                       0
     16 C0000016               0                       0
     17 C0000017               0                       0
     18 C0000018               0                       0
     19 C0000019               0                       0
     20 C0000020               0                       0
     21 C0000021               0                       0
     22 C0000022               0                       0
     23 C0000023               0                       0
     24 C0000024               0                       0
     25 C0000025               0                       0
     26 C0000026               0                       0
     27 C0000027               0                       0
     28 C0000028               0                       0
     29 C0000029               0                       0
     30 C0000030               0                       0
     31 C0000031               0                       0
     32 C0000032               0                       0
     33 C0000033               0                       0
     34 C0000034               0                       0
     35 C0000035               0                       0
     36 C0000036               0                       0
     37 C0000037               0                       0
     38 C0000038               0                       0
     39 C0000039               0                       0
     40 C0000040               0                       0
     41 C0000041               0                       0
     42 C0000042               0                       0
     43 C0000043               0                       0
     44 C0000044               0                       0
     45 C0000045               0                       0
     46 C0000046               0                       0
     47 C0000047               0                       0
     48 C0000048               0                       0
     49 C0000049               0                       0
     50 C0000050               0                       0
     51 C0000051               0                       0
     52 C0000052               0                       0
     53 C0000053               0                       0
     54 C0000054               0                       0
     55 C0000055               0                       0
     56 C0000056               0                       0
     57 C0000057               0                       0
     58 C0000058               4                       0
     59 C0000059             500                       0
     60 C0000060               0                       0
     61 C0000061              -1                       0
     62 C0000062              -1                       0
     63 C0000063               0                       0
     64 C0000064               0                       0
     65 C0000065              -1                       0
     66 C0000066              -1                       0
     67 C0000067               0                       0
     68 C0000068              -1                       0
     69 C0000069               0                       0
     70 C0000070               0                       0
     71 C0000071               0                       0
     72 C0000072               0                       0
     73 C0000073               0                       0
     74 C0000074               0                       0
     75 C0000075               0                       0
     76 C0000076               0                       0
     77 C0000077               0                       0
     78 C0000078               0                       0
     79 C0000079               0                       0
     80 C0000080               0                       0
     81 C0000081               0                       0
     82 C0000082               0                       0
     83 C0000083               0                       0
     84 C0000084               0                       0
     85 C0000085               0                       0
     86 C0000086               0                       0
     87 C0000087               0                       0
     88 C0000088               0                       0
     89 C0000089               0                       0
     90 C0000090               0                       0
     91 C0000091               0                       0
     92 C0000092               0                       0
     93 C0000093               0                       0
     94 C0000094               4                       0
     95 C0000095             500                       0
     96 C0000096              -1                       0
     97 C0000097               0                       0
     98 C0000098               0                       0
     99 C0000099              -1                       0
    100 C0000100              -1                       0
    101 C0000101               0                       0
    102 C0000102               0                       0
    103 C0000103              -1                       0
    104 C0000104               0                       0
    105 C0000105              -1                       0
    106 C0000106               0                       0
    107 C0000107               0                       0
    108 C0000108               0                       0
    109 C0000109               0                       0
    110 C0000110               0                       0
    111 C0000111               0                       0
    112 C0000112               0                       0
    113 C0000113               0                       0
    114 C0000114               0                       0
    115 C0000115               0                       0
    116 C0000116               0                       0
    117 C0000117               0                       0
    118 C0000118               0                       0
    119 C0000119               0                       0
    120 C0000120               0                       0
    121 C0000121               0                       0
    122 C0000122               1                       0
    123 C0000123               0                       0
    124 C0000124               0                       0
    125 C0000125               1                       0
    126 C0000126               0                       0
    127 C0000127               0                       0
    128 C0000128               0                       0
    129 C0000129               0                       0
    130 C0000130               0                       0
    131 C0000131               0                       0
    132 C0000132               0                       0
    133 C0000133               0                       0
    134 C0000134               0                       0
    135 C0000135               0                       0
    136 C0000136               0                       0
    137 C0000137               0                       0
    138 C0000138               0                       0
    139 C0000139               0                       0
    140 C0000140               0                       0
    141 C0000141               0                       0
    142 C0000142               0                       0
    143 C0000143               0                       0
    144 C0000144               0                       0
    145 C0000145               0                       0
    146 C0000146               0                       0
    147 C0000147               0                       0
    148 C0000148               0                       0
    149 C0000149               0                       0
    150 C0000150               0                       0
    151 C0000151               0                       0
    152 C0000152               0                       0
    153 C0000153               0                       0
    154 C0000154               0                       0
    155 C0000155               0                       0
    156 C0000156               0                       0
    157 C0000157               0                       0
    158 C0000158               0                       0
    159 C0000159               0                       0
    160 C0000160               0                       0
    161 C0000161               0                       0
    162 C0000162               0                       0
    163 C0000163               0                       0
    164 C0000164               0                       0
    165 C0000165               0                       0
    166 C0000166               0                       0
    167 C0000167               0                       0
    168 C0000168              -1                       0
    169 C0000169              -1                       0
    170 C0000170              -1                       0
    171 C0000171              -1                       0
    172 C0000172              -1                       0
    173 C0000173              -1                       0
    174 C0000174              -1                       0
    175 C0000175               0                       0
    176 C0000176              -1                       0
    177 C0000177               0                       0
    178 C0000178               0                       0
    179 C0000179               0                       0
    180 C0000180               0                       0
    181 C0000181               0                       0
    182 C0000182               0                       0
    183 C0000183               0                       0
    184 C0000184               0                       0
    185 C0000185               0                       0
    186 C0000186               0                       0
    187 C0000187               0                       0
    188 C0000188               0                       0
    189 C0000189               0                       0
    190 C0000190               0                       0
    191 C0000191               0                       0
    192 C0000192               0                       0
    193 C0000193               0                       0
    194 C0000194               0                       0
    195 C0000195               0                       0
    196 C0000196               0                       0
    197 C0000197               0                       0
    198 C0000198              -1                       0
    199 C0000199              -1                       0
    200 C0000200              -1                       0
    201 C0000201              -1                       0
    202 C0000202               0                       0
    203 C0000203              -1                       0
    204 C0000204              -1                       0
    205 C0000205              -1                       0
    206 C0000206              -1                       0
    207 C0000207               0                       0
    208 C0000208               0                       0
    209 C0000209               0                       0
    210 C0000210               0                       0
    211 C0000211               0                       0
    212 C0000212               0                       0
    213 C0000213               0                       0
    214 C0000214               0                       0
    215 C0000215               0                       0
    216 C0000216               0                       0
    217 C0000217               0                       0
    218 C0000218               0                       0
    219 C0000219               0                       0
    220 C0000220               0                       0
    221 C0000221               0                       0
    222 C0000222               0                       0
    223 C0000223               0                       0
    224 C0000224               0                       0
    225 C0000225               0                       0
    226 C0000226               0                       0
    227 C0000227               0                       0
    228 C0000228               0                       0
    229 C0000229               0                       0
    230 C0000230               0                       0
    231 C0000231               0                       0
    232 C0000232               0                       0
    233 C0000233               0                       0
    234 C0000234               0                       0
    235 C0000235               0                       0
    236 C0000236               0                       0
    237 C0000237               0                       0
    238 C0000238               0                       0
    239 C0000239               0                       0
    240 C0000240               0                       0
    241 C0000241               0                       0
    242 C0000242               0                       0
    243 C0000243               0                       0
    244 C0000244               0                       0
    245 C0000245               0                       0
    246 C0000246               0                       0
    247 C0000247               0                       0
    248 C0000248               0                       0
    249 C0000249               0                       0
    250 C0000250               0                       0
    251 C0000251               0                       0
    252 C0000252               0                       0
    253 C0000253               0                       0
    254 C0000254               0                       0
    255 C0000255               0                       0
    256 C0000256               0                       0
    257 C0000257               0                       0
    258 C0000258               0                       0
    259 C0000259               0                       0
    260 C0000260               0                       0
    261 C0000261               0                       0
    262 C0000262               0                       0
    263 C0000263               0                       0
    264 C0000264               0                       0
    265 C0000265               0                       0
    266 C0000266               0                       0
    267 C0000267               0                       0
    268 C0000268               0                       0
    269 C0000269               0                       0
    270 C0000270               0                       0
    271 C0000271               0                       0
    272 C0000272               0                       0
    273 C0000273               0                       0
    274 C0000274               0                       0
    275 C0000275               0                       0
    276 C0000276               0                       0
    277 C0000277               0                       0
    278 C0000278               0                       0
    279 C0000279               0                       0
    280 C0000280               0                       0
    281 C0000281               0                       0
    282 C0000282               0                       0
    283 C0000283               0                       0
    284 C0000284               0                       0
    285 C0000285               0                       0
    286 C0000286               0                       0
    287 C0000287               0                       0
    288 C0000288               0                       0
    289 C0000289               0                       0
    290 C0000290               0                       0
    291 C0000291               0                       0
    292 C0000292               0                       0
    293 C0000293               0                       0
    294 C0000294               0                       0
    295 C0000295               0                       0
    296 C0000296               0                       0
    297 C0000297               0                       0
    298 C0000298               2                       0
      0 X0000000               0                       0
      1 X0000001               0                       0
      2 X0000002               0                       0
      3 X0000003               0                       0
      4 X0000004               1                       0
      5 X0000005               0                       0
      6 X0000006               0                       0
      7 X0000007               1                       0
      8 X0000008               0                       0
      9 X0000009               0                  4e-005
     10 X0000010               0                4.2e-005
     11 X0000011               0                4.8e-005
     12 X0000012               0                4.2e-005
     13 X0000013               0                4.4e-005
     14 X0000014               0                  5e-005
     15 X0000015               0                4.8e-005
     16 X0000016               0                  5e-005
     17 X0000017               0                5.6e-005
     18 X0000018               0                4.2e-005
     19 X0000019               0                  4e-005
     20 X0000020               0                4.2e-005
     21 X0000021               0                4.4e-005
     22 X0000022               0                4.2e-005
     23 X0000023               0                4.4e-005
     24 X0000024               0                  5e-005
     25 X0000025               0                4.8e-005
     26 X0000026               0                  5e-005
     27 X0000027               0                4.8e-005
     28 X0000028               0                4.2e-005
     29 X0000029               0                  4e-005
     30 X0000030               0                  5e-005
     31 X0000031               0                4.4e-005
     32 X0000032               0                4.2e-005
     33 X0000033               0                5.6e-005
     34 X0000034               0                  5e-005
     35 X0000035               0                4.8e-005
     36 X0000036               0                4.2e-005
     37 X0000037               0                4.4e-005
     38 X0000038               0                  5e-005
     39 X0000039               0                  4e-005
     40 X0000040               0                4.2e-005
     41 X0000041               0                4.8e-005
     42 X0000042               0                4.2e-005
     43 X0000043               0                4.4e-005
     44 X0000044               0                  5e-005
     45 X0000045               0                4.4e-005
     46 X0000046               0                4.2e-005
     47 X0000047               0                4.4e-005
     48 X0000048               0                4.2e-005
     49 X0000049               0                  4e-005
     50 X0000050               0                4.2e-005
     51 X0000051               0                4.4e-005
     52 X0000052               1                4.2e-005
     53 X0000053               0                4.4e-005
     54 X0000054               0                  5e-005
     55 X0000055               0                4.4e-005
     56 X0000056               0                4.2e-005
     57 X0000057               0                4.8e-005
     58 X0000058               0                4.2e-005
     59 X0000059               0                  4e-005
     60 X0000060               0                  5e-005
     61 X0000061               0                4.4e-005
     62 X0000062               0                4.2e-005
     63 X0000063               0                4.8e-005
     64 X0000064               0                  5e-005
     65 X0000065               0                5.6e-005
     66 X0000066               0                4.2e-005
     67 X0000067               0                4.4e-005
     68 X0000068               0                  5e-005
     69 X0000069               0                  4e-005
     70 X0000070               0                4.2e-005
     71 X0000071               0                4.8e-005
     72 X0000072               0                  5e-005
     73 X0000073               0                4.8e-005
     74 X0000074               0                  5e-005
     75 X0000075               0                4.4e-005
     76 X0000076               1                4.2e-005
     77 X0000077               0                4.4e-005
     78 X0000078               0                4.2e-005
     79 X0000079               0                  4e-005
     80 X0000080               0                4.2e-005
     81 X0000081               0                5.6e-005
     82 X0000082               0                  5e-005
     83 X0000083               0                4.8e-005
     84 X0000084               0                  5e-005
     85 X0000085               0                4.4e-005
     86 X0000086               0                4.2e-005
     87 X0000087               0                4.8e-005
     88 X0000088               0                4.2e-005
     89 X0000089               0                  4e-005
     90 X0000090               0           2.046546e-005
     91 X0000091               0          1.7727034e-005
     92 X0000092               0          1.6988607e-005
     93 X0000093               0          1.8657257e-005
     94 X0000094               1           1.591883e-005
     95 X0000095               0          1.5180403e-005
     96 X0000096               0          1.8849054e-005
     97 X0000097               0          1.6110627e-005
     98 X0000098               0            1.53722e-005
     99 X0000099               0          2.0499966e-005
    100 X0000100               0          1.7981623e-005
    101 X0000101               0           1.746328e-005
    102 X0000102               0          1.8398172e-005
    103 X0000103               0          1.5879829e-005
    104 X0000104               0          1.5361486e-005
    105 X0000105               0          1.8296378e-005
    106 X0000106               1          1.5778035e-005
    107 X0000107               0          1.5259692e-005
    108 X0000108               0          1.8454932e-005
    109 X0000109               0          1.8954093e-005
    110 X0000110               0          2.1453254e-005
    111 X0000111               0          1.5771335e-005
    112 X0000112               0          1.6270496e-005
    113 X0000113               0          1.8769657e-005
    114 X0000114               0          1.5087738e-005
    115 X0000115               1          1.5586899e-005
    116 X0000116               0           1.808606e-005
    117 X0000117               0          1.5133294e-005
    118 X0000118               0          1.5669252e-005
    119 X0000119               0           1.820521e-005
    120 X0000120               0          1.5569519e-005
    121 X0000121               1          1.6105477e-005
    122 X0000122               0          1.8641434e-005
    123 X0000123               0          1.8005744e-005
    124 X0000124               0          1.8541702e-005
    125 X0000125               0          2.1077659e-005
    126 X0000126               0           1.867337e-005
    127 X0000127               0           1.584678e-005
    128 X0000128               0           1.502019e-005
    129 X0000129               0          1.9448227e-005
    130 X0000130               1          1.6621637e-005
    131 X0000131               0          1.5795047e-005
    132 X0000132               0          2.2223084e-005
    133 X0000133               0          1.9396494e-005
    134 X0000134               0          1.8569904e-005
    135 X0000135               0          1.9254907e-005
    136 X0000136               0          1.8267523e-005
    137 X0000137               0          1.9280138e-005
    138 X0000138               0          1.6639671e-005
    139 X0000139               0          1.5652287e-005
    140 X0000140               0          1.6664902e-005
    141 X0000141               0          1.6024435e-005
    142 X0000142               1          1.5037051e-005
    143 X0000143               0          1.6049666e-005
    144 X0000144               0          1.8632752e-005
    145 X0000145               0          1.9232176e-005
    146 X0000146               0            2.18316e-005
    147 X0000147               0          1.5841902e-005
    148 X0000148               0          1.6441326e-005
    149 X0000149               0           1.904075e-005
    150 X0000150               0          1.5051051e-005
    151 X0000151               1          1.5650475e-005
    152 X0000152               0          1.8249899e-005
    153 X0000153               0          1.6160445e-005
    154 X0000154               0          1.5622669e-005
    155 X0000155               0          1.7084894e-005
    156 X0000156               0          1.5651463e-005
    157 X0000157               1          1.5113688e-005
    158 X0000158               0          1.6575912e-005
    159 X0000159               0          1.7142481e-005
    160 X0000160               0          1.6604706e-005
    161 X0000161               0          1.8066931e-005
    162 X0000162               0          1.8275682e-005
    163 X0000163               0          1.8307106e-005
    164 X0000164               0          2.0338531e-005
    165 X0000165               0          1.5787905e-005
    166 X0000166               0          1.5819329e-005
    167 X0000167               0          1.7850753e-005
    168 X0000168               0          1.5300128e-005
    169 X0000169               1          1.5331552e-005
    170 X0000170               0          1.7362976e-005
    171 X0000171               0          1.5983419e-005
    172 X0000172               0          1.5043162e-005
    173 X0000173               0          1.6102905e-005
    174 X0000174               0          1.6572228e-005
    175 X0000175               1          1.5631971e-005
    176 X0000176               0          1.6691714e-005
    177 X0000177               0          1.9161038e-005
    178 X0000178               0          1.8220781e-005
    179 X0000179               0          1.9280524e-005
